SDVRP instances/p02/p02_1090_tsplib0_split0.vrp
NAME:.\SDVRP_split
BEST_KNOWN: 0
COMMENT: 0
DIMENSION: 489
CAPACITY: 140
EDGE_WEIGHT_FORMAT: FUNCTION
EDGE_WEIGHT_TYPE: EXACT_2D
NODE_COORD_SECTION
1 0.00000 0.00000
2 -18 -18
3 -18 -18
4 -18 -18
5 -18 -18
6 -18 -18
7 -18 -18
8 -18 -18
9 -18 -18
10 -18 -18
11 -4 -14
12 -4 -14
13 -4 -14
14 -4 -14
15 -19 5
16 -19 5
17 -19 5
18 -19 5
19 -19 5
20 -19 5
21 5 -5
22 5 -5
23 5 -5
24 5 -5
25 5 -5
26 5 -5
27 5 -5
28 5 -5
29 5 -5
30 15 -20
31 15 -20
32 15 -20
33 15 -20
34 15 -20
35 15 -20
36 15 -20
37 -7 -6
38 -7 -6
39 -7 -6
40 -7 -6
41 -7 -6
42 -7 -6
43 -7 -6
44 -7 -6
45 -7 -6
46 -7 -6
47 10 10
48 10 10
49 10 10
50 10 10
51 10 10
52 10 10
53 10 10
54 10 10
55 10 10
56 15 5
57 15 5
58 15 5
59 15 5
60 15 5
61 15 5
62 15 5
63 -14 19
64 -14 19
65 -14 19
66 -14 19
67 0 26
68 0 26
69 0 26
70 0 26
71 15 25
72 15 25
73 15 25
74 15 25
75 15 25
76 15 25
77 15 25
78 15 25
79 15 25
80 15 25
81 -5 11
82 -5 11
83 -5 11
84 -5 11
85 22 -5
86 22 -5
87 22 -5
88 22 -5
89 22 -5
90 22 -5
91 22 17
92 22 17
93 22 17
94 22 17
95 22 17
96 22 -16
97 22 -16
98 22 -16
99 22 -16
100 22 -16
101 -19 -4
102 -19 -4
103 -19 -4
104 -19 -4
105 -19 -4
106 -19 -4
107 -19 -4
108 -7 4
109 -7 4
110 -7 4
111 -7 4
112 -31 16
113 -31 16
114 -31 16
115 -31 16
116 22 8
117 22 8
118 22 8
119 22 8
120 22 8
121 22 8
122 22 8
123 22 8
124 22 8
125 26 -26
126 26 -26
127 26 -26
128 26 -26
129 26 -26
130 26 -26
131 26 -26
132 26 -26
133 4 -27
134 4 -27
135 4 -27
136 4 -27
137 4 -27
138 4 -27
139 -14 -27
140 -14 -27
141 -14 -27
142 -29 -12
143 -29 -12
144 -29 -12
145 -29 -12
146 -29 -12
147 -29 -12
148 -33 3
149 -33 3
150 -33 3
151 -33 3
152 -33 3
153 -33 3
154 -23 24
155 -23 24
156 -23 24
157 -23 24
158 -23 24
159 -23 24
160 -23 24
161 -23 24
162 1 6
163 1 6
164 1 6
165 1 6
166 1 6
167 1 6
168 1 6
169 1 6
170 1 6
171 15 -6
172 15 -6
173 15 -6
174 15 -6
175 -5 -24
176 -5 -24
177 -5 -24
178 -5 -24
179 -5 -24
180 -5 -24
181 12 -14
182 12 -14
183 12 -14
184 3 -14
185 3 -14
186 3 -14
187 3 -14
188 3 -14
189 3 -14
190 -9 36
191 -9 36
192 -9 36
193 -9 36
194 -9 36
195 -9 36
196 -9 36
197 -9 36
198 -9 36
199 -18 13
200 -18 13
201 -18 13
202 -18 13
203 -18 13
204 -18 13
205 -18 13
206 -18 13
207 -18 13
208 -14 -11
209 -14 -11
210 -14 -11
211 -14 -11
212 -14 -11
213 -14 -11
214 10 0
215 10 0
216 10 0
217 10 0
218 10 0
219 15 10
220 15 10
221 15 10
222 15 10
223 15 10
224 15 10
225 15 10
226 15 10
227 14 -30
228 14 -30
229 14 -30
230 14 -30
231 14 -30
232 14 -30
233 14 -30
234 20 -25
235 20 -25
236 20 -25
237 20 -25
238 20 -25
239 20 -25
240 20 -25
241 7 26
242 7 26
243 7 26
244 7 26
245 7 26
246 7 26
247 7 26
248 7 26
249 -10 20
250 -10 20
251 -10 20
252 -10 20
253 -10 20
254 -10 20
255 -10 20
256 -10 20
257 -10 10
258 -10 10
259 -10 10
260 -10 10
261 -10 10
262 -10 10
263 -10 10
264 -28 -23
265 -28 -23
266 -25 -26
267 -25 -26
268 -24 -21
269 -24 -21
270 -24 -21
271 -19 8
272 -19 8
273 -19 8
274 -19 8
275 -19 8
276 -19 8
277 -19 8
278 10 -10
279 10 -10
280 10 -10
281 10 -10
282 11 2
283 11 2
284 11 2
285 11 2
286 11 2
287 10 -25
288 10 -25
289 10 -25
290 10 -25
291 10 -25
292 10 -25
293 10 -25
294 10 -25
295 10 -25
296 8 -19
297 8 -19
298 8 -19
299 8 -19
300 8 -19
301 8 -19
302 8 -19
303 8 -19
304 -28 -2
305 -28 -2
306 -28 -2
307 -28 -2
308 -28 -2
309 -28 -2
310 -28 -2
311 -28 -2
312 -25 16
313 -25 16
314 -25 16
315 -25 16
316 -25 16
317 -25 16
318 -25 16
319 -25 16
320 -25 16
321 -25 16
322 -11 -1
323 -11 -1
324 -11 -1
325 -11 -1
326 -11 -1
327 -11 -1
328 -11 -1
329 14 -2
330 14 -2
331 14 -2
332 14 -2
333 14 -2
334 14 -2
335 15 17
336 15 17
337 15 17
338 27 1
339 27 1
340 27 1
341 27 1
342 27 1
343 27 1
344 27 1
345 27 1
346 -30 30
347 -30 30
348 -30 30
349 -30 30
350 -30 30
351 -30 30
352 -30 30
353 -30 30
354 -30 30
355 -30 30
356 -34 -15
357 -34 -15
358 -34 -15
359 -34 -15
360 -34 -15
361 -34 -15
362 -34 -15
363 -34 -15
364 25 -13
365 25 -13
366 25 -13
367 25 -13
368 25 -13
369 25 -13
370 25 -13
371 25 -13
372 0 20
373 0 20
374 0 20
375 0 20
376 0 20
377 30 24
378 30 24
379 30 24
380 30 24
381 30 24
382 24 -36
383 24 -36
384 24 -36
385 24 -36
386 24 -36
387 -4 -34
388 -4 -34
389 -4 -34
390 -4 -34
391 -4 -34
392 -10 -20
393 -10 -20
394 -10 -20
395 -20 -10
396 -20 -10
397 -20 -10
398 -25 -35
399 -25 -35
400 -25 -35
401 -25 -35
402 -25 -35
403 -25 -35
404 -25 -35
405 10 30
406 10 30
407 10 30
408 10 30
409 10 30
410 10 30
411 10 30
412 17 32
413 17 32
414 17 32
415 17 32
416 17 32
417 17 32
418 17 32
419 5 2
420 5 2
421 5 2
422 5 2
423 5 2
424 5 2
425 5 2
426 5 2
427 5 2
428 -2 -7
429 -2 -7
430 -2 -7
431 -2 -7
432 -2 -7
433 10 -36
434 10 -36
435 10 -36
436 10 -36
437 10 -36
438 10 -36
439 10 -36
440 10 -36
441 10 -36
442 10 -36
443 26 -32
444 26 -32
445 26 -32
446 26 -32
447 26 -32
448 26 -32
449 26 -32
450 26 -32
451 26 -32
452 26 -32
453 19 -35
454 19 -35
455 19 -35
456 19 -35
457 19 -35
458 19 -35
459 -5 20
460 -5 20
461 -5 20
462 -5 20
463 -5 20
464 -5 20
465 -13 -16
466 -13 -16
467 -13 -16
468 -13 -16
469 -13 -16
470 -13 -16
471 -13 -16
472 -13 -16
473 0 -20
474 0 -20
475 0 -20
476 0 -20
477 0 -20
478 0 -20
479 0 -20
480 0 -20
481 0 -20
482 0 -20
483 0 -20
484 0 -3
485 0 -3
486 0 -3
487 0 -3
488 0 -3
489 0 -3
DEMAND_SECTION
1 0
2 28
3 28
4 28
5 14
6 7
7 1
8 1
9 1
10 1
11 28
12 28
13 1
14 1
15 28
16 7
17 1
18 1
19 1
20 1
21 28
22 28
23 14
24 1
25 1
26 1
27 1
28 1
29 1
30 28
31 28
32 28
33 28
34 1
35 1
36 1
37 28
38 28
39 28
40 14
41 7
42 1
43 1
44 1
45 1
46 1
47 28
48 28
49 7
50 1
51 1
52 1
53 1
54 1
55 1
56 14
57 7
58 1
59 1
60 1
61 1
62 1
63 28
64 7
65 1
66 1
67 14
68 1
69 1
70 1
71 28
72 28
73 28
74 14
75 1
76 1
77 1
78 1
79 1
80 1
81 28
82 28
83 1
84 1
85 28
86 28
87 7
88 1
89 1
90 1
91 28
92 28
93 14
94 1
95 1
96 28
97 28
98 28
99 7
100 1
101 28
102 14
103 1
104 1
105 1
106 1
107 1
108 14
109 7
110 1
111 1
112 28
113 28
114 14
115 1
116 28
117 28
118 28
119 14
120 7
121 1
122 1
123 1
124 1
125 28
126 28
127 14
128 1
129 1
130 1
131 1
132 1
133 14
134 7
135 1
136 1
137 1
138 1
139 28
140 28
141 28
142 28
143 28
144 28
145 1
146 1
147 1
148 28
149 28
150 14
151 7
152 1
153 1
154 28
155 28
156 28
157 14
158 1
159 1
160 1
161 1
162 28
163 28
164 28
165 7
166 1
167 1
168 1
169 1
170 1
171 14
172 1
173 1
174 1
175 28
176 28
177 28
178 14
179 1
180 1
181 28
182 1
183 1
184 14
185 7
186 1
187 1
188 1
189 1
190 28
191 28
192 28
193 14
194 7
195 1
196 1
197 1
198 1
199 28
200 28
201 28
202 14
203 1
204 1
205 1
206 1
207 1
208 28
209 28
210 28
211 14
212 7
213 1
214 28
215 7
216 1
217 1
218 1
219 28
220 28
221 28
222 14
223 7
224 1
225 1
226 1
227 28
228 28
229 7
230 1
231 1
232 1
233 1
234 28
235 28
236 28
237 14
238 1
239 1
240 1
241 28
242 28
243 7
244 1
245 1
246 1
247 1
248 1
249 28
250 28
251 7
252 1
253 1
254 1
255 1
256 1
257 28
258 28
259 28
260 14
261 7
262 1
263 1
264 28
265 7
266 14
267 7
268 28
269 28
270 28
271 28
272 28
273 28
274 1
275 1
276 1
277 1
278 28
279 28
280 28
281 28
282 28
283 14
284 1
285 1
286 1
287 28
288 28
289 7
290 1
291 1
292 1
293 1
294 1
295 1
296 28
297 28
298 1
299 1
300 1
301 1
302 1
303 1
304 28
305 28
306 28
307 14
308 7
309 1
310 1
311 1
312 28
313 28
314 14
315 7
316 1
317 1
318 1
319 1
320 1
321 1
322 28
323 28
324 28
325 1
326 1
327 1
328 1
329 28
330 28
331 28
332 1
333 1
334 1
335 14
336 7
337 1
338 28
339 28
340 28
341 28
342 1
343 1
344 1
345 1
346 28
347 28
348 28
349 7
350 1
351 1
352 1
353 1
354 1
355 1
356 28
357 28
358 28
359 7
360 1
361 1
362 1
363 1
364 28
365 14
366 1
367 1
368 1
369 1
370 1
371 1
372 28
373 28
374 28
375 7
376 1
377 28
378 28
379 1
380 1
381 1
382 28
383 14
384 7
385 1
386 1
387 28
388 28
389 28
390 28
391 1
392 28
393 14
394 1
395 28
396 14
397 7
398 28
399 14
400 1
401 1
402 1
403 1
404 1
405 28
406 14
407 7
408 1
409 1
410 1
411 1
412 28
413 28
414 7
415 1
416 1
417 1
418 1
419 28
420 28
421 28
422 14
423 7
424 1
425 1
426 1
427 1
428 14
429 7
430 1
431 1
432 1
433 28
434 28
435 28
436 28
437 7
438 1
439 1
440 1
441 1
442 1
443 28
444 28
445 28
446 14
447 7
448 1
449 1
450 1
451 1
452 1
453 28
454 28
455 28
456 28
457 7
458 1
459 28
460 28
461 28
462 28
463 1
464 1
465 28
466 28
467 28
468 14
469 7
470 1
471 1
472 1
473 28
474 28
475 28
476 28
477 7
478 1
479 1
480 1
481 1
482 1
483 1
484 14
485 1
486 1
487 1
488 1
489 1
DEPOT_SECTION
1
-1
EOF