SDVRP instances/p02/p02_1090_tsplib0_split0.sol
488 -4 8 1 3 7 266 265 398 402 400 403 399 401 397 -11 10 465 466 464 -16 18 17 14 19 15 275 273 270 271 272 274 276 -20 279 277 278 280 -21 173 171 172 170 88 85 89 86 84 87 333 329 -23 22 457 452 455 454 453 456 294 292 291 293 290 -24 26 127 124 126 128 130 131 125 129 449 443 450 447 451 234 237 181 182 -27 28 25 233 236 235 230 227 232 228 226 229 231 -32 31 29 30 180 -34 35 33 239 238 442 446 448 445 444 383 384 385 382 381 -38 44 45 36 39 37 41 40 42 43 -51 50 48 54 46 52 49 220 225 221 219 218 224 -53 47 335 336 334 77 71 70 72 75 79 76 78 -60 57 56 58 61 55 59 123 122 121 118 119 120 117 115 116 -64 65 62 63 158 155 154 153 156 157 160 159 -74 73 413 415 412 411 417 414 416 409 405 410 407 408 404 406 243 246 244 247 -80 81 82 83 255 252 251 253 248 249 250 254 -98 95 99 97 96 364 365 368 367 370 363 366 369 -100 106 102 104 105 307 309 305 304 303 310 308 306 -107 110 108 109 316 313 320 315 317 350 354 347 353 351 352 346 348 345 349 -112 113 111 114 312 311 318 314 319 -134 132 137 133 135 136 390 388 387 389 386 431 429 -141 144 145 146 142 143 396 394 395 -147 149 148 151 150 152 101 103 325 321 -166 164 165 167 169 162 163 161 168 -186 183 432 435 440 436 439 438 437 433 434 441 -187 188 184 185 286 287 289 288 295 296 298 301 297 300 299 302 -197 196 195 189 190 193 192 194 191 462 459 -205 204 199 203 206 198 202 200 201 258 261 -210 207 209 208 212 211 -214 215 217 213 216 331 332 330 328 281 285 284 283 -222 223 94 90 92 93 91 376 377 380 379 378 -245 242 241 240 68 69 66 67 372 373 -259 257 260 262 256 323 322 327 324 326 -264 263 355 359 360 356 361 358 357 362 -267 269 268 2 5 9 6 471 467 470 -282 341 337 338 342 343 340 339 344 -374 375 371 460 458 461 463 -392 393 391 139 140 138 469 468 -419 418 420 421 424 423 425 426 422 -427 430 428 12 13 178 179 176 177 175 174 483 486 487 -474 475 476 473 482 478 481 479 477 480 472 485 488 484 0 





OBJ=
2364.663
BEST_KNOWN=
0.000